proyfinal/src/viki/013/experimentInOfficeAgust.take6.output/a5e1ac36-cd5a-45b0-afba-064abdb61646.als.dat
{'cnf.clauses': '161767',
 'cnf.totvars': '87638',
 'conflict literals': '242879',
 'conflicts': '3442',
 'decisions': '14566',
 'memused.mb': '23.59',
 'outcome': 'UNSAT',
 'propagations': '4604462',
 'restarts': '18',
 'solver.msecs': 392,
 'stats_inv': {'cnf.clauses': '118081',
               'cnf.totvars': '69608',
               'conflict literals': '8',
               'conflicts': '4',
               'decisions': '35567',
               'memused.mb': '16.99',
               'outcome': 'SAT',
               'propagations': '71380',
               'restarts': '1',
               'solver.msecs': 36,
               'task.output': "Reading from standard input... Use '--help' for "
                              'help.\n'
                              '============================[ Problem '
                              'Statistics ]=============================\n'
                              '|                                                                             '
                              '|\n'
                              '|  Number of variables:         '
                              '69608                                         '
                              '|\n'
                              '|  Number of clauses:          '
                              '118081                                         '
                              '|\n'
                              '|  Parse time:                   0.03 '
                              's                                       |\n'
                              '|                                                                             '
                              '|\n'
                              '============================[ Search Statistics '
                              ']==============================\n'
                              '| Conflicts |          ORIGINAL         '
                              '|          LEARNT          | Progress |\n'
                              '|           |    Vars  Clauses Literals |    '
                              'Limit  Clauses Lit/Cl |          |\n'
                              '===============================================================================\n'
                              '===============================================================================\n'
                              'restarts              : 1\n'
                              'conflicts             : 4              (110 '
                              '/sec)\n'
                              'decisions             : 35567          (0.00 % '
                              'random) (977545 /sec)\n'
                              'propagations          : 71380          (1961851 '
                              '/sec)\n'
                              'conflict literals     : 8              (0.00 % '
                              'deleted)\n'
                              'Memory used           : 16.99 MB\n'
                              'CPU time              : 0.036384 s\n'
                              '\n'
                              'SATISFIABLE\n'},
 'task.msecs': 520}
