proyfinal/src/viki/013/andrea/andrea-localstore/experimentInOfficeAgust.take6/worker_11/a5e1ac36-cd5a-45b0-afba-064abdb61646.als.cnf.out
Reading from standard input... Use '--help' for help.
============================[ Problem Statistics ]=============================
|                                                                             |
|  Number of variables:         87638                                         |
|  Number of clauses:          161767                                         |
|  Parse time:                   0.04 s                                       |
|                                                                             |
============================[ Search Statistics ]==============================
| Conflicts |          ORIGINAL         |          LEARNT          | Progress |
|           |    Vars  Clauses Literals |    Limit  Clauses Lit/Cl |          |
===============================================================================
|       100 |   63615   109712   274411 |    40227      100      9 | 27.412 % |
|       250 |   63615   109712   274411 |    44250      250     41 | 27.412 % |
|       475 |   63615   109712   274411 |    48675      475     65 | 27.412 % |
|       812 |   63567   109612   274182 |    53543      699    109 | 27.466 % |
|      1318 |   63567   109512   273953 |    58897     1193    100 | 27.466 % |
|      2077 |   43576    51277   130812 |    64787     1847    102 | 50.277 % |
|      3216 |   43576    49478   126126 |    71265     2607     71 | 50.277 % |
===============================================================================
restarts              : 18
conflicts             : 3442           (8777 /sec)
decisions             : 14566          (0.00 % random) (37144 /sec)
propagations          : 4604462        (11741554 /sec)
conflict literals     : 242879         (32.36 % deleted)
Memory used           : 23.59 MB
CPU time              : 0.392151 s

UNSATISFIABLE
